(set-option :produce-models true)
(set-logic QF_UF)
(declare-fun p50() Bool)
(declare-fun p7() Bool)
(declare-fun p45() Bool)
(declare-fun p55() Bool)
(declare-fun p20() Bool)
(declare-fun p46() Bool)
(declare-fun p37() Bool)
(declare-fun p15() Bool)
(declare-fun p53() Bool)
(declare-fun p29() Bool)
(declare-fun p21() Bool)
(declare-fun p42() Bool)
(declare-fun p33() Bool)
(declare-fun p62() Bool)
(declare-fun p6() Bool)
(declare-fun p32() Bool)
(declare-fun p2() Bool)
(declare-fun p51() Bool)
(declare-fun p0() Bool)
(declare-fun p40() Bool)
(declare-fun p27() Bool)
(declare-fun p9() Bool)
(declare-fun p43() Bool)
(declare-fun p31() Bool)
(declare-fun p49() Bool)
(declare-fun p68() Bool)
(declare-fun p1() Bool)
(declare-fun p11() Bool)
(declare-fun p13() Bool)
(declare-fun p41() Bool)
(declare-fun p39() Bool)
(declare-fun p60() Bool)
(declare-fun p67() Bool)
(declare-fun p57() Bool)
(declare-fun p25() Bool)
(declare-fun p64() Bool)
(declare-fun p36() Bool)
(declare-fun p16() Bool)
(declare-fun p14() Bool)
(declare-fun p5() Bool)
(declare-fun p52() Bool)
(declare-fun p3() Bool)
(declare-fun p44() Bool)
(declare-fun p28() Bool)
(declare-fun p65() Bool)
(declare-fun p10() Bool)
(declare-fun p47() Bool)
(declare-fun p63() Bool)
(declare-fun p48() Bool)
(declare-fun p19() Bool)
(declare-fun p56() Bool)
(declare-fun p12() Bool)
(declare-fun p35() Bool)
(declare-fun p66() Bool)
(declare-fun p54() Bool)
(declare-fun p38() Bool)
(declare-fun p30() Bool)
(declare-fun p23() Bool)
(declare-fun p59() Bool)
(declare-fun p22() Bool)
(declare-fun p61() Bool)
(declare-fun p58() Bool)
(declare-fun p18() Bool)
(declare-fun p34() Bool)
(declare-fun p69() Bool)
(declare-fun p17() Bool)
(declare-fun p4() Bool)
(declare-fun p8() Bool)
(declare-fun p26() Bool)
(declare-fun p24() Bool)
(assert
(and (or (not p50) p7 (not p45)) (or p55 (not p20) (not p46)) (or (not p37) (not p15) p53) (or p29 p21 p37) (or p42 p33 p29) (or (not p62) (not p6) (not p32)) (or p2 (not p51) p7) (or p46 p0 (not p62)) (or p40 (not p6) p27) (or p33 p9 (not p6)) (or p43 (not p37) (not p31)) (or (not p49) (not p68) p32) (or (not p32) (not p32) (not p53)) (or p1 (not p11) (not p62)) (or p45 (not p50) (not p13)) (or p62 p62 p41) (or (not p37) p45 p39) (or p60 (not p15) p33) (or p67 p57 (not p25)) (or (not p11) (not p15) p64) (or p7 p60 p25) (or p43 p60 p36) (or p16 p67 p39) (or p14 p5 (not p52)) (or p62 (not p3) (not p44)) (or p14 p28 (not p65)) (or (not p14) (not p13) p10) (or p11 (not p28) p1) (or (not p55) (not p14) (not p51)) (or (not p47) p63 (not p16)) (or p44 (not p48) p19) (or (not p3) (not p64) p56) (or p20 (not p39) (not p12)) (or p10 (not p31) (not p56)) (or (not p35) (not p46) p55) (or p68 p46 p3) (or (not p41) p44 (not p57)) (or (not p66) (not p56) p45) (or (not p42) (not p67) p25) (or (not p25) p46 p63) (or p32 p54 p66) (or p38 p30 (not p23)) (or p28 p7 p23) (or p59 p22 (not p38)) (or (not p36) (not p61) p7) (or (not p5) p27 p68) (or (not p37) p1 p1) (or p68 p54 p58) (or (not p18) (not p30) p2) (or (not p52) (not p36) (not p34)) (or p68 p34 (not p34)) (or p35 (not p58) p65) (or p50 (not p60) (not p34)) (or (not p7) (not p10) (not p18)) (or p44 p59 (not p37)) (or (not p56) (not p18) (not p60)) (or (not p44) p7 p64) (or p60 p55 p3) (or (not p30) p3 (not p9)) (or p62 (not p11) p68) (or p45 (not p5) p25) (or (not p69) (not p15) p30) (or (not p52) (not p29) p69) (or (not p38) (not p33) p6) (or p36 p19 (not p32)) (or (not p2) p41 (not p5)) (or (not p51) p12 p42) (or (not p25) p39 p66) (or (not p2) (not p55) p27) (or (not p48) (not p32) (not p35)) (or (not p27) (not p10) (not p45)) (or p3 (not p17) (not p27)) (or p65 (not p36) p21) (or p45 (not p22) p25) (or (not p11) p68 p21) (or p4 p64 p15) (or (not p48) (not p6) p13) (or p8 p46 (not p19)) (or p21 p55 (not p47)) (or (not p49) p61 p44) (or p62 p44 (not p2)) (or p44 (not p7) (not p52)) (or (not p38) (not p66) p34) (or (not p7) (not p47) (not p25)) (or (not p39) p60 p3) (or p54 (not p55) p9) (or (not p26) p57 (not p47)) (or (not p19) p55 (not p1)) (or (not p49) (not p35) p42) (or (not p29) (not p62) (not p33)) (or (not p50) (not p56) p58) (or (not p61) p41 p58) (or p37 (not p24) p15) (or p50 (not p33) (not p43)) (or p46 p41 p48) (or (not p63) p50 (not p9)) (or (not p26) p46 (not p3)) (or p47 (not p34) p25) (or p16 p53 (not p56)) (or (not p22) (not p60) p28) (or (not p15) p30 p29) (or p12 (not p68) (not p13)) (or p17 (not p65) p64) (or p17 p44 p34) (or (not p36) p7 (not p63)) (or p26 (not p60) (not p30)) (or (not p23) (not p7) p40) (or p36 p49 p66) (or (not p44) p58 p0) (or p3 (not p21) p66) (or (not p33) p2 (not p69)) (or (not p47) (not p57) (not p34)) (or p22 (not p69) p69) (or (not p54) (not p37) p33) (or p53 (not p33) p18) (or (not p69) (not p37) p53) (or p22 (not p24) (not p33)) (or p42 (not p6) (not p14)) (or (not p12) (not p38) (not p66)) (or p4 p60 (not p36)) (or (not p24) (not p45) (not p3)) (or p16 p55 p29) (or p20 (not p68) p69) (or (not p30) p62 p44) (or p68 (not p55) (not p27)) (or (not p63) (not p35) p11) (or p38 p54 p65) (or (not p45) (not p15) (not p59)) (or p14 (not p8) p33) (or p59 p0 p36) (or p47 (not p41) (not p23)) (or (not p22) (not p6) p15) (or (not p35) (not p55) (not p55)) (or p18 (not p32) p2) (or (not p57) (not p49) p60) (or p41 p41 p53) (or (not p41) p8 (not p56)) (or (not p6) p54 (not p42)) (or p35 (not p37) (not p10)) (or p67 (not p0) (not p67)) (or (not p22) (not p22) (not p4)) (or (not p44) p20 p16) (or (not p56) p52 p38) (or p49 p16 p63) (or (not p64) (not p65) (not p20)) (or p2 (not p8) (not p47)) (or (not p66) p15 p32) (or (not p29) p32 p67) (or (not p37) (not p65) (not p29)) (or (not p66) (not p54) (not p27)) (or p25 p40 (not p33)) (or p60 (not p6) p44) (or p35 (not p36) p9) (or (not p68) p14 p27) (or (not p67) p2 p0) (or (not p48) p63 p67) (or (not p63) (not p34) (not p57)) (or p14 (not p8) (not p7)) (or (not p67) p47 (not p49)) (or p31 (not p61) (not p14)) (or (not p28) (not p50) (not p43)) (or (not p67) (not p41) p30) (or p66 p24 p56) (or (not p6) p2 (not p7)) (or p58 (not p45) (not p14)) (or (not p42) p38 p57) (or (not p11) (not p50) (not p62)) (or (not p57) (not p31) (not p51)) (or p17 p61 p4) (or (not p66) (not p38) (not p62)) (or p47 p42 p31) (or (not p38) (not p40) (not p30)) (or (not p53) p32 (not p11)) (or (not p12) (not p27) p14) (or (not p26) (not p50) p51) (or p50 p56 p7) (or (not p66) (not p14) p28) (or p57 p42 p46) (or (not p50) (not p42) p14) (or p53 (not p37) p31) (or p26 p26 (not p3)) (or p17 p42 p10) (or p20 (not p11) p29) (or p37 (not p33) (not p33)) (or p14 (not p28) p8) (or p8 (not p2) p31) (or p30 p61 p59) (or (not p35) (not p68) (not p23)) (or p67 p24 (not p37)) (or (not p66) p69 (not p61)) (or (not p31) p53 (not p50)) (or (not p15) p66 (not p18)) (or (not p28) p30 p33) (or p4 p7 (not p19)) (or (not p10) (not p16) p64) (or (not p55) p65 p11) (or p60 (not p59) p18) (or p62 (not p68) p23) (or (not p59) (not p28) (not p59)) (or p68 p48 p28) (or p26 (not p18) (not p23)) (or p33 p37 p21) (or p32 (not p22) p62) (or p26 (not p6) (not p52)) (or p11 (not p54) (not p66)) (or p56 p69 p42) (or (not p55) (not p16) p49) (or p32 (not p44) (not p28)) (or p13 (not p49) p68) (or (not p53) (not p12) (not p7)) (or (not p31) p56 p5) (or p43 p27 (not p22)) (or (not p34) (not p47) (not p36)) (or (not p29) p54 p28) (or p32 (not p45) (not p64)) (or p9 p8 p3) (or p15 (not p33) p61) (or p0 (not p57) p18) (or p17 (not p69) (not p23)) (or p34 (not p8) p42) (or p2 (not p55) (not p51)) (or p6 p3 p3) (or (not p32) (not p21) (not p5)) (or p45 p16 (not p1)) (or (not p69) p54 p0) (or p23 p54 p33) (or (not p62) p51 (not p30)) (or p47 (not p36) p53) (or p20 (not p20) (not p29)) (or p42 p24 p34) (or (not p60) p54 (not p31)) (or p2 p27 p35) (or (not p2) (not p37) p51) (or (not p36) (not p20) p19) (or p55 p60 (not p21)) (or p16 p19 p0) (or (not p3) (not p3) (not p40)) (or (not p22) p21 p29) (or (not p27) p23 (not p53)) (or (not p1) p56 (not p10)) (or (not p58) p36 (not p35)) (or p17 (not p28) p24) (or (not p20) p20 (not p13)) (or p13 (not p5) p23) (or (not p67) (not p61) (not p36)) (or (not p36) p64 p0) (or (not p21) (not p54) (not p20)) (or (not p62) p43 p21) (or p26 (not p68) (not p42)) (or p65 p10 p56) (or p32 (not p67) (not p4)) (or (not p10) (not p67) p66) (or (not p17) p19 p20) (or p38 p60 p0) (or (not p27) p60 (not p63)) (or (not p5) (not p8) (not p43)) (or p48 p36 p6) (or (not p17) (not p8) p1) (or (not p28) (not p24) p64) (or p10 (not p69) p55) (or (not p61) p34 p43) (or p58 (not p17) (not p67)) (or (not p10) (not p46) (not p49)) (or p32 (not p45) (not p18)) (or p52 p52 (not p49)) (or (not p60) (not p13) p33) (or p4 (not p33) (not p50)) (or p58 p3 p2) (or p50 p13 p61) (or p8 (not p39) (not p11)) (or p61 (not p13) (not p59)) (or (not p46) (not p59) p59) (or p27 (not p43) p57) (or p51 (not p41) p56) (or (not p20) (not p0) p30) (or p17 p31 (not p22)) (or p54 (not p48) p51) (or p66 (not p12) (not p31)) (or p51 p57 (not p62)) (or p51 (not p54) p54) (or (not p10) p27 p1) (or p63 p21 (not p12)) (or p16 p47 (not p22)) (or p27 p42 (not p62)) (or p29 (not p18) (not p14)) (or (not p10) p66 p57) (or (not p2) (not p50) (not p28)) (or p60 p46 p13) (or (not p67) p48 p1) (or (not p65) (not p48) (not p31)) (or (not p3) p23 (not p28)) (or p61 (not p0) p48) (or p11 p40 p18) (or p34 p23 (not p16)) (or p5 p47 p8) (or p49 (not p64) p30) (or (not p56) p10 p47))
)
(check-sat)
(get-model)
